words_hard_train/2999.qaiger
aag 150 24 0 1 126
2
4
12
20
22
26
30
38
42
46
58
60
82
84
106
108
126
128
146
148
164
166
196
200
301
6 3 4
8 2 5
10 7 9
14 10 13
16 11 12
18 15 17
24 20 22
28 26 22
32 29 31
34 33 22
36 25 35
40 36 39
44 40 43
48 44 47
50 49 22
52 19 51
54 18 50
56 53 55
62 59 60
64 58 61
66 63 65
68 66 47
70 67 46
72 69 71
74 45 22
76 73 75
78 72 74
80 77 79
86 83 84
88 82 85
90 87 89
92 90 43
94 91 42
96 93 95
98 41 22
100 97 99
102 96 98
104 101 103
110 106 108
112 107 109
114 111 113
116 37 38
118 117 41
120 114 118
122 115 119
124 121 123
130 127 128
132 126 129
134 131 133
136 28 30
138 137 33
140 135 139
142 134 138
144 141 143
150 147 148
152 146 149
154 151 153
156 154 27
158 155 26
160 157 159
162 144 161
168 165 166
170 164 167
172 169 171
174 172 21
176 173 20
178 175 177
180 179 35
182 178 34
184 181 183
186 162 185
188 125 186
190 105 188
192 81 190
194 57 192
198 195 196
202 196 201
204 197 200
206 203 205
208 13 22
210 208 48
212 207 210
214 206 211
216 213 215
218 80 191
220 219 193
222 220 58
224 56 193
226 225 195
228 226 2
230 223 229
232 185 164
234 160 147
236 145 127
238 235 237
240 233 239
242 144 126
244 240 243
246 184 165
248 245 247
250 124 187
252 251 189
254 253 107
256 248 255
258 256 187
260 104 189
262 261 191
264 262 82
266 259 265
268 252 106
270 266 269
272 263 83
274 221 59
276 273 275
278 271 276
280 230 279
282 227 3
284 281 283
286 216 284
288 198 287
290 194 197
292 286 290
294 289 293
296 217 285
298 296 291
300 294 299
i0 1 x1[6]
i1 2 y1[6]
i2 2 y2[6]
i3 2 y2[2]
i4 2 y2[7]
i5 2 y2[0]
i6 2 y2[1]
i7 2 y2[3]
i8 2 y2[4]
i9 2 y2[5]
i10 1 x1[5]
i11 2 y1[5]
i12 1 x1[4]
i13 2 y1[4]
i14 1 x1[3]
i15 2 y1[3]
i16 1 x1[1]
i17 2 y1[1]
i18 1 x1[0]
i19 2 y1[0]
i20 1 x1[2]
i21 2 y1[2]
i22 1 x1[7]
i23 2 y1[7]
o0 bv[0]
c
simplified
  <
    1 x1
    xor
      xor
        2 y1
        1 x1
      abs
        2 y2
