words_hard_train/2999.qaiger.qdimacs
p cnf 150 379
a 1 98 41 73 82 53 29 63 0
e 2 3 4 5 6 7 8 9 10 11 12 13 14 15 16 17 18 19 20 21 22 23 24 25 26 27 28 30 31 32 33 34 35 36 37 38 39 40 42 43 44 45 46 47 48 49 50 51 52 54 55 56 57 58 59 60 61 62 64 65 66 67 68 69 70 71 72 74 75 76 77 78 79 80 81 83 84 85 86 87 88 89 90 91 92 93 94 95 96 97 99 100 101 102 103 104 105 106 107 108 109 110 111 112 113 114 115 116 117 118 119 120 121 122 123 124 125 126 127 128 129 130 131 132 133 134 135 136 137 138 139 140 141 142 143 144 145 146 147 148 149 150 0
1 -2 3 0
-1 -3 0
2 -3 0
-1 2 4 0
1 -4 0
-2 -4 0
3 4 5 0
-3 -5 0
-4 -5 0
-5 6 7 0
5 -7 0
-6 -7 0
5 -6 8 0
-5 -8 0
6 -8 0
7 8 9 0
-7 -9 0
-8 -9 0
-10 -11 12 0
10 -12 0
11 -12 0
-13 -11 14 0
13 -14 0
11 -14 0
14 15 16 0
-14 -16 0
-15 -16 0
16 -11 17 0
-16 -17 0
11 -17 0
12 17 18 0
-12 -18 0
-17 -18 0
-18 19 20 0
18 -20 0
-19 -20 0
-20 21 22 0
20 -22 0
-21 -22 0
-22 23 24 0
22 -24 0
-23 -24 0
24 -11 25 0
-24 -25 0
11 -25 0
9 25 26 0
-9 -26 0
-25 -26 0
-9 -25 27 0
9 -27 0
25 -27 0
26 27 28 0
-26 -28 0
-27 -28 0
29 -30 31 0
-29 -31 0
30 -31 0
-29 30 32 0
29 -32 0
-30 -32 0
31 32 33 0
-31 -33 0
-32 -33 0
-33 23 34 0
33 -34 0
-23 -34 0
33 -23 35 0
-33 -35 0
23 -35 0
34 35 36 0
-34 -36 0
-35 -36 0
22 -11 37 0
-22 -37 0
11 -37 0
36 37 38 0
-36 -38 0
-37 -38 0
-36 -37 39 0
36 -39 0
37 -39 0
38 39 40 0
-38 -40 0
-39 -40 0
41 -42 43 0
-41 -43 0
42 -43 0
-41 42 44 0
41 -44 0
-42 -44 0
43 44 45 0
-43 -45 0
-44 -45 0
-45 21 46 0
45 -46 0
-21 -46 0
45 -21 47 0
-45 -47 0
21 -47 0
46 47 48 0
-46 -48 0
-47 -48 0
20 -11 49 0
-20 -49 0
11 -49 0
48 49 50 0
-48 -50 0
-49 -50 0
-48 -49 51 0
48 -51 0
49 -51 0
50 51 52 0
-50 -52 0
-51 -52 0
-53 -54 55 0
53 -55 0
54 -55 0
53 54 56 0
-53 -56 0
-54 -56 0
55 56 57 0
-55 -57 0
-56 -57 0
18 -19 58 0
-18 -58 0
19 -58 0
58 20 59 0
-58 -59 0
-20 -59 0
-57 -59 60 0
57 -60 0
59 -60 0
57 59 61 0
-57 -61 0
-59 -61 0
60 61 62 0
-60 -62 0
-61 -62 0
63 -64 65 0
-63 -65 0
64 -65 0
-63 64 66 0
63 -66 0
-64 -66 0
65 66 67 0
-65 -67 0
-66 -67 0
-14 -15 68 0
14 -68 0
15 -68 0
68 16 69 0
-68 -69 0
-16 -69 0
67 69 70 0
-67 -70 0
-69 -70 0
-67 -69 71 0
67 -71 0
69 -71 0
70 71 72 0
-70 -72 0
-71 -72 0
73 -74 75 0
-73 -75 0
74 -75 0
-73 74 76 0
73 -76 0
-74 -76 0
75 76 77 0
-75 -77 0
-76 -77 0
-77 13 78 0
77 -78 0
-13 -78 0
77 -13 79 0
-77 -79 0
13 -79 0
78 79 80 0
-78 -80 0
-79 -80 0
-72 80 81 0
72 -81 0
-80 -81 0
82 -83 84 0
-82 -84 0
83 -84 0
-82 83 85 0
82 -85 0
-83 -85 0
84 85 86 0
-84 -86 0
-85 -86 0
-86 10 87 0
86 -87 0
-10 -87 0
86 -10 88 0
-86 -88 0
10 -88 0
87 88 89 0
-87 -89 0
-88 -89 0
89 17 90 0
-89 -90 0
-17 -90 0
-89 -17 91 0
89 -91 0
17 -91 0
90 91 92 0
-90 -92 0
-91 -92 0
-81 92 93 0
81 -93 0
-92 -93 0
62 -93 94 0
-62 -94 0
93 -94 0
52 -94 95 0
-52 -95 0
94 -95 0
40 -95 96 0
-40 -96 0
95 -96 0
28 -96 97 0
-28 -97 0
96 -97 0
97 -98 99 0
-97 -99 0
98 -99 0
-98 100 101 0
98 -101 0
-100 -101 0
98 -100 102 0
-98 -102 0
100 -102 0
101 102 103 0
-101 -103 0
-102 -103 0
6 -11 104 0
-6 -104 0
11 -104 0
-104 -24 105 0
104 -105 0
24 -105 0
103 -105 106 0
-103 -106 0
105 -106 0
-103 105 107 0
103 -107 0
-105 -107 0
106 107 108 0
-106 -108 0
-107 -108 0
-40 95 109 0
40 -109 0
-95 -109 0
109 96 110 0
-109 -110 0
-96 -110 0
-110 -29 111 0
110 -111 0
29 -111 0
-28 96 112 0
28 -112 0
-96 -112 0
112 97 113 0
-112 -113 0
-97 -113 0
-113 -1 114 0
113 -114 0
1 -114 0
111 114 115 0
-111 -115 0
-114 -115 0
92 -82 116 0
-92 -116 0
82 -116 0
-80 73 117 0
80 -117 0
-73 -117 0
72 63 118 0
-72 -118 0
-63 -118 0
117 118 119 0
-117 -119 0
-118 -119 0
116 119 120 0
-116 -120 0
-119 -120 0
-72 -63 121 0
72 -121 0
63 -121 0
-120 121 122 0
120 -122 0
-121 -122 0
-92 82 123 0
92 -123 0
-82 -123 0
122 123 124 0
-122 -124 0
-123 -124 0
-62 93 125 0
62 -125 0
-93 -125 0
125 94 126 0
-125 -126 0
-94 -126 0
126 53 127 0
-126 -127 0
-53 -127 0
-124 127 128 0
124 -128 0
-127 -128 0
-128 93 129 0
128 -129 0
-93 -129 0
-52 94 130 0
52 -130 0
-94 -130 0
130 95 131 0
-130 -131 0
-95 -131 0
-131 -41 132 0
131 -132 0
41 -132 0
129 132 133 0
-129 -133 0
-132 -133 0
-126 -53 134 0
126 -134 0
53 -134 0
-133 134 135 0
133 -135 0
-134 -135 0
131 41 136 0
-131 -136 0
-41 -136 0
110 29 137 0
-110 -137 0
-29 -137 0
136 137 138 0
-136 -138 0
-137 -138 0
135 -138 139 0
-135 -139 0
138 -139 0
-115 139 140 0
115 -140 0
-139 -140 0
113 1 141 0
-113 -141 0
-1 -141 0
140 141 142 0
-140 -142 0
-141 -142 0
-108 -142 143 0
108 -143 0
142 -143 0
-99 143 144 0
99 -144 0
-143 -144 0
-97 98 145 0
97 -145 0
-98 -145 0
-143 -145 146 0
143 -146 0
145 -146 0
144 146 147 0
-144 -147 0
-146 -147 0
108 142 148 0
-108 -148 0
-142 -148 0
-148 145 149 0
148 -149 0
-145 -149 0
-147 149 150 0
147 -150 0
-149 -150 0
-150 0
